Problem:    
Rows:       256
Columns:    89 (72 integer, 72 binary)
Non-zeros:  800
Status:     INTEGER OPTIMAL
Objective:  value = 76.088714 (MINimum)

   No.   Row name        Activity     Lower bound   Upper bound
------ ------------    ------------- ------------- -------------
     1 r.5                   1076.09             0               
     2 r.6                  -986.701      -989.175               
     3 r.7                   76.0887             0               
     4 r.8                  -970.579      -973.053               
     5 r.9                   1076.09             0               
     6 r.10                 -965.845      -987.812               
     7 r.11                  76.0887             0               
     8 r.12                  52.1498      -968.812               
     9 r.13                  1076.09             0               
    10 r.14                  -947.85      -982.005               
    11 r.15                  76.0887             0               
    12 r.16                 -934.367      -963.038               
    13 r.17                  76.0887             0               
    14 r.18                 -987.195      -989.669               
    15 r.19                  1076.09             0               
    16 r.20                 -971.328      -977.035               
    17 r.21                  1076.09             0               
    18 r.22                 -978.033      -991.332               
    19 r.23                  76.0887             0               
    20 r.24                  28.6716      -981.547               
    21 r.25                  1076.09             0               
    22 r.26                 -997.526      -997.526               
    23 r.27                  76.0887             0               
    24 r.28                   2.4739      -996.353               
    25 r.29                  76.0887             0               
    26 r.30                  76.0887       -975.94               
    27 r.31                  1076.09             0               
    28 r.32                 -923.911      -952.583               
    29 r.33                  1076.09             0               
    30 r.34                 -923.911      -976.061               
    31 r.35                  76.0887             0               
    32 r.36                  76.0887      -952.556               
    33 r.37                        1             1             = 
    34 r.38                        1             1             = 
    35 r.39                        1             1             = 
    36 r.40                        1             1             = 
    37 r.41                        1             1             = 
    38 r.42                        1             1             = 
    39 r.43                        1             1             = 
    40 r.44                        1             1             = 
    41 r.45                        2             2               
    42 r.46                       -2         -1001               
    43 r.47                 -979.144      -987.812               
    44 r.48                     1000             2               
    45 r.49                    -1000         -1001               
    46 r.50                  3022.73      -968.812               
    47 r.51                        2             2               
    48 r.52                       -2         -1001               
    49 r.53                 -961.149      -982.005               
    50 r.54                     1000             2               
    51 r.55                    -1000         -1001               
    52 r.56                  2036.21      -963.038               
    53 r.57                     1001             2               
    54 r.58                    -1001         -1001               
    55 r.59                  999.506      -989.669               
    56 r.60                     1001             2               
    57 r.61                    -1001         -1001               
    58 r.62                  2999.25      -977.035               
    59 r.63                        2             2               
    60 r.64                       -2         -1001               
    61 r.65                 -991.332      -991.332               
    62 r.66                     1000             2               
    63 r.67                    -1000         -1001               
    64 r.68                  2999.25      -981.547               
    65 r.69                 -989.175      -989.175               
    66 r.70                 -973.053      -973.053               
    67 r.71                 -989.175      -989.175               
    68 r.72                 -973.053      -973.053               
    69 r.73                  62.7897       -975.94               
    70 r.74                  -937.21      -952.583               
    71 r.75                  1046.67       -975.94               
    72 r.76                  46.6674      -952.583               
    73 r.77                        2             2               
    74 r.78                       -2         -1001               
    75 r.79                  -937.21      -976.061               
    76 r.80                     1000             2               
    77 r.81                    -1000         -1001               
    78 r.82                  3046.67      -952.556               
    79 r.83                        2             2               
    80 r.84                       -2         -1001               
    81 r.85                  979.144       10.8252               
    82 r.86                     1000             2               
    83 r.87                    -1000         -1001               
    84 r.88                  977.272       26.9474               
    85 r.89                        2             2               
    86 r.90                       -2         -1001               
    87 r.91                 -982.005      -982.005               
    88 r.92                     1000             2               
    89 r.93                    -1000         -1001               
    90 r.94                  1013.48      -963.038               
    91 r.95                     1001             2               
    92 r.96                    -1001         -1001               
    93 r.97                   978.65      -989.669               
    94 r.98                     1001             2               
    95 r.99                    -1001         -1001               
    96 r.100                 1976.52      -977.035               
    97 r.101                       2             2               
    98 r.102                      -2         -1001               
    99 r.103                -12.1878      -991.332               
   100 r.104                    1000             2               
   101 r.105                   -1000         -1001               
   102 r.106                 1976.52      -981.547               
   103 r.107                -968.319      -987.812               
   104 r.108                 49.6759      -968.812               
   105 r.109                -968.319      -987.812               
   106 r.110                 49.6759      -968.812               
   107 r.111                    1001             2               
   108 r.112                   -1001         -1001               
   109 r.113                 2041.93       -975.94               
   110 r.114                    1001             2               
   111 r.115                   -1001         -1001               
   112 r.116                 2023.94      -952.583               
   113 r.117                -958.066      -976.061               
   114 r.118                 41.9336      -952.556               
   115 r.119                -976.061      -976.061               
   116 r.120                 23.9389      -952.556               
   117 r.121                       2             2               
   118 r.122                      -2         -1001               
   119 r.123                 961.149       10.8252               
   120 r.124                    1000             2               
   121 r.125                   -1000         -1001               
   122 r.126                 1963.79       26.9474               
   123 r.127                       2             2               
   124 r.128                      -2         -1001               
   125 r.129                 982.005       12.1878               
   126 r.130                    1000             2               
   127 r.131                   -1000         -1001               
   128 r.132                 2986.52       31.1882               
   129 r.133                 39.3449      -982.005               
   130 r.134                 52.8285      -963.038               
   131 r.135                -976.522      -982.005               
   132 r.136                -963.038      -963.038               
   133 r.137                       2             2               
   134 r.138                      -2         -1001               
   135 r.139                -30.1825      -991.332               
   136 r.140                    1000             2               
   137 r.141                   -1000         -1001               
   138 r.142                 2963.04      -981.547               
   139 r.143                -950.324      -982.005               
   140 r.144                -936.841      -963.038               
   141 r.145                -950.324      -982.005               
   142 r.146                -936.841      -963.038               
   143 r.147                    1001             2               
   144 r.148                   -1001         -1001               
   145 r.149                 2023.94       -975.94               
   146 r.150                    1001             2               
   147 r.151                   -1001         -1001               
   148 r.152                 3010.46      -952.583               
   149 r.153                -976.061      -976.061               
   150 r.154                 23.9389      -952.556               
   151 r.155                 10.4554      -976.061               
   152 r.156                 1010.46      -952.556               
   153 r.157                    1001             2               
   154 r.158                   -1001         -1001               
   155 r.159                 3000.49       10.8252               
   156 r.160                    1001             2               
   157 r.161                   -1001         -1001               
   158 r.162                 1000.75       26.9474               
   159 r.163                    1001             2               
   160 r.164                   -1001         -1001               
   161 r.165                 3021.35       12.1878               
   162 r.166                    1001             2               
   163 r.167                   -1001         -1001               
   164 r.168                 2023.48       31.1882               
   165 r.169                    1001             2               
   166 r.170                   -1001         -1001               
   167 r.171                 3009.16      -991.332               
   168 r.172                    1001             2               
   169 r.173                   -1001         -1001               
   170 r.174                    2000      -981.547               
   171 r.175                -989.669      -989.669               
   172 r.176                -973.802      -977.035               
   173 r.177                -989.669      -989.669               
   174 r.178                -973.802      -977.035               
   175 r.179                    1000             2               
   176 r.180                   -1000         -1001               
   177 r.181                 3063.28       -975.94               
   178 r.182                       2             2               
   179 r.183                      -2         -1001               
   180 r.184                -952.583      -952.583               
   181 r.185                 63.2838      -976.061               
   182 r.186                 1063.28      -952.556               
   183 r.187                -952.583      -976.061               
   184 r.188                 47.4171      -952.556               
   185 r.189                       2             2               
   186 r.190                      -2         -1001               
   187 r.191                 991.332       10.8252               
   188 r.192                    1000             2               
   189 r.193                   -1000         -1001               
   190 r.194                 1000.75       26.9474               
   191 r.195                       2             2               
   192 r.196                      -2         -1001               
   193 r.197                 12.1878       12.1878               
   194 r.198                    1000             2               
   195 r.199                   -1000         -1001               
   196 r.200                 2023.48       31.1882               
   197 r.201                       2             2               
   198 r.202                      -2         -1001               
   199 r.203                 30.1825       17.9947               
   200 r.204                    1000             2               
   201 r.205                   -1000         -1001               
   202 r.206                 1036.96       36.9618               
   203 r.207                    1001             2               
   204 r.208                   -1001         -1001               
   205 r.209                 990.838        10.331               
   206 r.210                    1001             2               
   207 r.211                   -1001         -1001               
   208 r.212                    2000       22.9647               
   209 r.213                -980.507      -991.332               
   210 r.214                 26.1977      -981.547               
   211 r.215                -980.507      -991.332               
   212 r.216                 26.1977      -981.547               
   213 r.217                 54.1214       -975.94               
   214 r.218                -945.879      -952.583               
   215 r.219                 47.4171       -975.94               
   216 r.220                -952.583      -952.583               
   217 r.221                -945.879      -976.061               
   218 r.222                 54.1214      -952.556               
   219 r.223                -952.583      -976.061               
   220 r.224                 47.4171      -952.556               
   221 r.225                    1001             2               
   222 r.226                   -1001         -1001               
   223 r.227                 1958.07       12.1878               
   224 r.228                    1001             2               
   225 r.229                   -1001         -1001               
   226 r.230                 1976.06       31.1882               
   227 r.231                    1001             2               
   228 r.232                   -1001         -1001               
   229 r.233                 1976.06       17.9947               
   230 r.234                    1001             2               
   231 r.235                   -1001         -1001               
   232 r.236                 989.545       36.9618               
   233 r.237                    1000             2               
   234 r.238                   -1000         -1001               
   235 r.239                 936.716        10.331               
   236 r.240                       2             2               
   237 r.241                      -2         -1001               
   238 r.242                 952.583       22.9647               
   239 r.243                    1001             2               
   240 r.244                   -1001         -1001               
   241 r.245                    2000      -976.061               
   242 r.246                    1001             2               
   243 r.247                   -1001         -1001               
   244 r.248                    2000      -952.556               
   245 r.249                       2             2               
   246 r.250                      -2         -1001               
   247 r.251                  937.21       10.8252               
   248 r.252                    1000             2               
   249 r.253                   -1000         -1001               
   250 r.254                 953.333       26.9474               
   251 r.255                    1001             2               
   252 r.256                   -1001         -1001               
   253 r.257                    2000       24.0602               
   254 r.258                    1001             2               
   255 r.259                   -1001         -1001               
   256 r.260                    2000       47.4171               

   No. Column name       Activity     Lower bound   Upper bound
------ ------------    ------------- ------------- -------------
     1 tt                    76.0887             0               
     2 s_1_1        *              1             0             1 
     3 t_1_1                 62.7897             0               
     4 s_1_7        *              0             0             1 
     5 s_2_1        *              0             0             1 
     6 t_2_1                 1046.67             0               
     7 s_2_7        *              1             0             1 
     8 s_1_2        *              1             0             1 
     9 t_1_2                 41.9336             0               
    10 s_1_8        *              1             0             1 
    11 s_2_2        *              0             0             1 
    12 t_2_2                 23.9389             0               
    13 s_2_8        *              0             0             1 
    14 s_1_3        *              1             0             1 
    15 t_1_3                 23.9389             0               
    16 s_2_3        *              0             0             1 
    17 t_2_3                 1010.46             0               
    18 s_1_4        *              0             0             1 
    19 t_1_4                 1063.28             0               
    20 s_2_4        *              1             0             1 
    21 t_2_4                 47.4171             0               
    22 s_1_5        *              1             0             1 
    23 t_1_5                 54.1214             0               
    24 s_2_5        *              0             0             1 
    25 t_2_5                 47.4171             0               
    26 s_1_6        *              1             0             1 
    27 t_1_6                 73.6148             0               
    28 s_2_6        *              0             0             1 
    29 t_2_6                 73.6148             0               
    30 t_1_7                       0             0               
    31 t_2_7                       0             0               
    32 t_1_8                       0             0               
    33 t_2_8                       0             0               
    34 r_1_1_2      *              0             0             1 
    35 u_1_1_2      *              1             0             1 
    36 r_2_1_2      *              1             0             1 
    37 u_2_1_2      *              0             0             1 
    38 r_1_1_3      *              0             0             1 
    39 u_1_1_3      *              1             0             1 
    40 r_2_1_3      *              1             0             1 
    41 u_2_1_3      *              0             0             1 
    42 r_1_1_4      *              1             0             1 
    43 u_1_1_4      *              0             0             1 
    44 r_2_1_4      *              1             0             1 
    45 u_2_1_4      *              0             0             1 
    46 r_1_1_5      *              0             0             1 
    47 u_1_1_5      *              1             0             1 
    48 r_2_1_5      *              1             0             1 
    49 u_2_1_5      *              0             0             1 
    50 r_1_1_8      *              0             0             1 
    51 u_1_1_8      *              1             0             1 
    52 r_2_1_8      *              1             0             1 
    53 u_2_1_8      *              0             0             1 
    54 r_1_2_3      *              0             0             1 
    55 u_1_2_3      *              1             0             1 
    56 r_2_2_3      *              1             0             1 
    57 u_2_2_3      *              0             0             1 
    58 r_1_2_4      *              1             0             1 
    59 u_1_2_4      *              0             0             1 
    60 r_2_2_4      *              1             0             1 
    61 u_2_2_4      *              0             0             1 
    62 r_1_2_5      *              0             0             1 
    63 u_1_2_5      *              0             0             1 
    64 r_2_2_5      *              1             0             1 
    65 u_2_2_5      *              0             0             1 
    66 r_1_2_7      *              1             0             1 
    67 u_1_2_7      *              0             0             1 
    68 r_2_2_7      *              1             0             1 
    69 u_2_2_7      *              0             0             1 
    70 r_1_3_5      *              0             0             1 
    71 u_1_3_5      *              0             0             1 
    72 r_2_3_5      *              1             0             1 
    73 u_2_3_5      *              0             0             1 
    74 r_1_3_7      *              1             0             1 
    75 u_1_3_7      *              0             0             1 
    76 r_2_3_7      *              1             0             1 
    77 u_2_3_7      *              0             0             1 
    78 r_1_4_5      *              1             0             1 
    79 u_1_4_5      *              0             0             1 
    80 r_2_4_5      *              1             0             1 
    81 u_2_4_5      *              0             0             1 
    82 r_1_4_7      *              1             0             1 
    83 u_1_4_7      *              0             0             1 
    84 r_2_4_7      *              0             0             1 
    85 u_2_4_7      *              1             0             1 
    86 r_1_7_8      *              1             0             1 
    87 u_1_7_8      *              0             0             1 
    88 r_2_7_8      *              1             0             1 
    89 u_2_7_8      *              0             0             1 

Integer feasibility conditions:

KKT.PE: max.abs.err = 4.55e-13 on row 155
        max.rel.err = 7.42e-17 on row 155
        High quality

KKT.PB: max.abs.err = 0.00e+00 on row 0
        max.rel.err = 0.00e+00 on row 0
        High quality

End of output
